p cnf 10 39
1 8 -2 0
-6 -10 8 9 0
8 -4 9 0
6 -9 0
8 6 -4 2 0
-7 -2 0
7 2 5 4 10 -8 0
10 5 -4 -1 -2 -8 -6 3 0
-8 -4 9 0
6 5 0
-10 -7 -2 -1 4 0
3 7 -2 -9 1 -4 5 6 0
-5 10 3 -4 0
6 -5 0
-10 -7 1 3 -8 -6 4 -5 -9 2 0
1 -2 -7 -4 0
-7 2 -6 -1 0
-3 4 -8 -6 -2 10 0
-6 -5 7 0
3 5 -2 6 4 0
-8 7 -6 0
4 9 5 0
1 -3 6 9 -2 7 0
7 -2 -6 0
9 6 -3 0
6 9 -10 0
-7 -10 4 0
9 -4 10 0
-4 -1 10 6 -2 -3 9 8 0
6 -9 -5 -4 0
-5 7 3 -1 0
-10 -7 2 0
7 10 4 -1 0
-7 -10 6 5 1 4 -8 0
6 -2 -8 -1 10 0
-9 2 0
4 -6 -1 0
10 -8 1 0
7 1 -5 0
